min: c;

c = 3.42843890222124 * u4_t1_h1 + 3.39389500395787 * u4_t1_h2 + 2.88762664056472 * u4_t1_h3 + 3.48251036425409 * u4_t1_h4 + 3.48251036425409 * u4_t10_h4 + 4.02813822962195 * u4_t1_h5 + 4.02813822962195 * u4_t10_h5 + 3.53367152719629 * u4_t1_h6 + 3.53367152719629 * u4_t10_h6 + 4.4956929277954 * u4_t1_h7 + 4.4956929277954 * u4_t10_h7 + 5.69771445030462 * u4_t1_h8 + 5.69771445030462 * u4_t9_h8 + 5.69771445030462 * u4_t10_h8 + 5.01423108263539 * u4_t9_h9 + 5.01423108263539 * u4_t10_h9 + 5.88236803148976 * u4_t9_h10 + 5.88236803148976 * u4_t10_h10 + 4.24488891703295 * u4_t2_h11 + 4.24488891703295 * u4_t4_h11 + 4.24488891703295 * u4_t9_h11 + 4.24488891703295 * u4_t10_h11 + 6.02534456390865 * u4_t2_h12 + 6.02534456390865 * u4_t3_h12 + 6.02534456390865 * u4_t4_h12 + 6.02534456390865 * u4_t8_h12 + 6.02534456390865 * u4_t9_h12 + 6.02534456390865 * u4_t10_h12 + 4.33431837204348 * u4_t2_h13 + 4.33431837204348 * u4_t3_h13 + 4.33431837204348 * u4_t4_h13 + 4.33431837204348 * u4_t8_h13 + 4.33431837204348 * u4_t9_h13 + 5.45940163553246 * u4_t2_h14 + 5.45940163553246 * u4_t3_h14 + 5.45940163553246 * u4_t4_h14 + 5.45940163553246 * u4_t8_h14 + 5.45940163553246 * u4_t9_h14 + 6.14372495664315 * u4_t2_h15 + 6.14372495664315 * u4_t3_h15 + 6.14372495664315 * u4_t4_h15 + 6.14372495664315 * u4_t8_h15 + 6.14372495664315 * u4_t9_h15 + 5.83077866069565 * u4_t2_h16 + 5.83077866069565 * u4_t3_h16 + 5.83077866069565 * u4_t4_h16 + 5.83077866069565 * u4_t5_h16 + 5.83077866069565 * u4_t8_h16 + 5.83077866069565 * u4_t9_h16 + 5.99749613822701 * u4_t2_h17 + 5.99749613822701 * u4_t3_h17 + 5.99749613822701 * u4_t5_h17 + 5.99749613822701 * u4_t8_h17 + 5.99749613822701 * u4_t9_h17 + 6.16603389575716 * u4_t2_h18 + 6.16603389575716 * u4_t3_h18 + 6.16603389575716 * u4_t5_h18 + 6.16603389575716 * u4_t8_h18 + 6.16603389575716 * u4_t9_h18 + 5.15899739903034 * u4_t2_h19 + 5.15899739903034 * u4_t3_h19 + 5.15899739903034 * u4_t6_h19 + 5.15899739903034 * u4_t8_h19 + 5.15899739903034 * u4_t9_h19 + 5.76759541482246 * u4_t2_h20 + 5.76759541482246 * u4_t6_h20 + 5.76759541482246 * u4_t9_h20 + 4.78865370798787 * u4_t6_h21 + 5.84752323362847 * u4_t6_h22 + 5.84752323362847 * u4_t7_h22 + 5.85003253256557 * u4_t6_h23 + 5.85003253256557 * u4_t7_h23;
0 <= u4_t1_h1 <= 1;
0 <= u4_t1_h2 <= 1;
0 <= u4_t1_h3 <= 1;
0 <= u4_t1_h4 <= 1;
0 <= u4_t1_h5 <= 1;
0 <= u4_t1_h6 <= 1;
0 <= u4_t1_h7 <= 1;
0 <= u4_t1_h8 <= 1;
u4_t1_h1 + u4_t1_h2 + u4_t1_h3 + u4_t1_h4 + u4_t1_h5 + u4_t1_h6 + u4_t1_h7 + u4_t1_h8 = 1;
0 <= u4_t2_h11 <= 1;
0 <= u4_t2_h12 <= 1;
0 <= u4_t2_h13 <= 1;
0 <= u4_t2_h14 <= 1;
0 <= u4_t2_h15 <= 1;
0 <= u4_t2_h16 <= 1;
0 <= u4_t2_h17 <= 1;
0 <= u4_t2_h18 <= 1;
0 <= u4_t2_h19 <= 1;
0 <= u4_t2_h20 <= 1;
u4_t2_h11 + u4_t2_h12 + u4_t2_h13 + u4_t2_h14 + u4_t2_h15 + u4_t2_h16 + u4_t2_h17 + u4_t2_h18 + u4_t2_h19 + u4_t2_h20 = 2;
0 <= u4_t3_h12 <= 1;
0 <= u4_t3_h13 <= 1;
0 <= u4_t3_h14 <= 1;
0 <= u4_t3_h15 <= 1;
0 <= u4_t3_h16 <= 1;
0 <= u4_t3_h17 <= 1;
0 <= u4_t3_h18 <= 1;
0 <= u4_t3_h19 <= 1;
u4_t3_h12 + u4_t3_h13 + u4_t3_h14 + u4_t3_h15 + u4_t3_h16 + u4_t3_h17 + u4_t3_h18 + u4_t3_h19 = 3;
0 <= u4_t4_h11 <= 1;
0 <= u4_t4_h12 <= 1;
0 <= u4_t4_h13 <= 1;
0 <= u4_t4_h14 <= 1;
0 <= u4_t4_h15 <= 1;
0 <= u4_t4_h16 <= 1;
u4_t4_h11 + u4_t4_h12 + u4_t4_h13 + u4_t4_h14 + u4_t4_h15 + u4_t4_h16 = 3;
0 <= u4_t5_h16 <= 1;
0 <= u4_t5_h17 <= 1;
0 <= u4_t5_h18 <= 1;
u4_t5_h16 + u4_t5_h17 + u4_t5_h18 = 1;
0 <= u4_t6_h19 <= 1;
0 <= u4_t6_h20 <= 1;
0 <= u4_t6_h21 <= 1;
0 <= u4_t6_h22 <= 1;
0 <= u4_t6_h23 <= 1;
u4_t6_h19 + u4_t6_h20 + u4_t6_h21 + u4_t6_h22 + u4_t6_h23 = 3;
0 <= u4_t7_h22 <= 1;
0 <= u4_t7_h23 <= 1;
u4_t7_h22 + u4_t7_h23 = 1;
0 <= u4_t8_h12 <= 1;
0 <= u4_t8_h13 <= 1;
0 <= u4_t8_h14 <= 1;
0 <= u4_t8_h15 <= 1;
0 <= u4_t8_h16 <= 1;
0 <= u4_t8_h17 <= 1;
0 <= u4_t8_h18 <= 1;
0 <= u4_t8_h19 <= 1;
u4_t8_h12 + u4_t8_h13 + u4_t8_h14 + u4_t8_h15 + u4_t8_h16 + u4_t8_h17 + u4_t8_h18 + u4_t8_h19 = 2;
0 <= u4_t9_h8 <= 1;
0 <= u4_t9_h9 <= 1;
0 <= u4_t9_h10 <= 1;
0 <= u4_t9_h11 <= 1;
0 <= u4_t9_h12 <= 1;
0 <= u4_t9_h13 <= 1;
0 <= u4_t9_h14 <= 1;
0 <= u4_t9_h15 <= 1;
0 <= u4_t9_h16 <= 1;
0 <= u4_t9_h17 <= 1;
0 <= u4_t9_h18 <= 1;
0 <= u4_t9_h19 <= 1;
0 <= u4_t9_h20 <= 1;
u4_t9_h8 + u4_t9_h9 + u4_t9_h10 + u4_t9_h11 + u4_t9_h12 + u4_t9_h13 + u4_t9_h14 + u4_t9_h15 + u4_t9_h16 + u4_t9_h17 + u4_t9_h18 + u4_t9_h19 + u4_t9_h20 = 2;
0 <= u4_t10_h4 <= 1;
0 <= u4_t10_h5 <= 1;
0 <= u4_t10_h6 <= 1;
0 <= u4_t10_h7 <= 1;
0 <= u4_t10_h8 <= 1;
0 <= u4_t10_h9 <= 1;
0 <= u4_t10_h10 <= 1;
0 <= u4_t10_h11 <= 1;
0 <= u4_t10_h12 <= 1;
u4_t10_h4 + u4_t10_h5 + u4_t10_h6 + u4_t10_h7 + u4_t10_h8 + u4_t10_h9 + u4_t10_h10 + u4_t10_h11 + u4_t10_h12 = 2;
